(set-info :smt-lib-version 2.6)
(set-logic UFLIA)
(set-info :source |
Generated by: Geoff Sutcliffe
Generated on: 2026-03-11
Generator: TPTPWorld
Application: Benchmarking automated theorem provers
Time limit: 120.0

These benchmarks are translations from the TPTP Library (Thousands of
Problems for Theorem Provers), see http://www.cs.miami.edu/~tptp/

The TPTP is maintained by Geoff Sutcliffe, and he contributed this
selection of benchmarks to SMT-LIB.  They were exported from the
v9.2.1 realease of TPTP.
|)
(set-info :category "industrial")
(set-info :status "unknown")
; SZS status Success
(declare-sort $$unsorted 0)
(declare-fun tptp.queens_q () Bool)
(declare-fun tptp.queens_p () Bool)
(declare-fun tptp.q (Int) Int)
(declare-fun tptp.p (Int) Int)
(declare-fun tptp.n () Int)
(declare-fun tptp.perm (Int) Int)
(assert (=> tptp.queens_p (forall ((I Int) (J Int)) (let ((_let_1 (tptp.p J))) (let ((_let_2 (tptp.p I))) (=> (and (<= 1 I) (<= I tptp.n) (<= (+ 1 I) J) (<= J tptp.n)) (and (not (= _let_2 _let_1)) (not (= (+ _let_2 I) (+ _let_1 J))) (not (= (- _let_2 I) (- _let_1 J))))))))))
(assert (forall ((I Int)) (= (tptp.perm I) (- (+ 1 tptp.n) I))))
(assert (=> (forall ((I Int) (J Int)) (let ((_let_1 (tptp.q J))) (let ((_let_2 (tptp.q I))) (let ((_let_3 (<= (+ 1 I) J))) (=> (and (<= 1 I) (<= I tptp.n) _let_3 (<= J tptp.n) (= _let_3 (<= (+ 1 (tptp.perm J)) (tptp.perm I)))) (and (not (= _let_2 _let_1)) (not (= (+ _let_2 I) (+ _let_1 J))) (not (= (- _let_2 I) (- _let_1 J))))))))) tptp.queens_q))
(assert (not (=> (and tptp.queens_p (forall ((I Int)) (= (tptp.q I) (tptp.p (tptp.perm I))))) tptp.queens_q)))
(assert (forall ((I Int)) (let ((_let_1 (tptp.perm I))) (=> (and (<= 1 I) (<= I tptp.n)) (and (<= 1 _let_1) (<= _let_1 tptp.n))))))
(assert (forall ((J Int) (I Int)) (= (- I J) (- (tptp.perm J) (tptp.perm I)))))
(check-sat)
